>> Start of run:   6-APR-2016  14:27:17

reinit: Reading from standard input
************************** Dump of input data file ****************************
#(1) General system descriptors
SystemName            GRP_doping    # Descriptive name of the system
SystemLabel           GRP_doping    # Short name for naming files
%include STRUCT.fdf
%include KPT.fdf
%include BASIS.fdf
#%include TS.fdf # for transiesta calculation
#(4) DFT, Grid, SCF
XC.functional         GGA           # LDA or GGA (default = LDA)
XC.authors            PBE           # CA (Ceperley-Aldr) = PZ
                                    #    (Perdew-Zunger) - LDA - Default
                                    # PW92 (Perdew-Wang-92) - LDA
                                    # PBE (Perdew-Burke-Ernzerhof) - GGA
MeshCutoff            200.000000    Ry      # Default: 50.0 Ry ~ 0.444 Bohr
                                    #         100.0 Ry ~ 0.314 Bohr
MaxSCFIterations      500           # Default: 50
DM.MixingWeight       0.05          # Default: 0.25
DM.NumberPulay        10            # Default: 0
DM.PulayOnFile        F             # SystemLabel.P1, SystemLabel.P2
DM.Tolerance          1.d-4         # Default: 1.d-4
DM.UseSaveDM          .true.        # because of the bug
SCFMustConverge       .true.
NeglNonOverlapInt     F             # Default: F
Diag.ParallelOverK    .true.
#(5) Eigenvalue problem: order-N or diagonalization
SolutionMethod        Diagon        # or Transiesta
ElectronicTemperature 300.0 K       # Default: 300.0 K
#(6) Molecular dynamics and relaxations
#MD.TypeOfRun          CG            # Type of dynamics:
#MD.VariableCell       F
#MD.NumCGsteps         0           # 0 for single-point / 100 for gopt
#MD.MaxCGDispl         0.2 Bohr      # Default: 0.2 Bohr
#MD.MaxForceTol        0.02 eV/Ang   # Default: 0.04 eV/Ang
#MD.MaxStressTol       1.0 GPa       # Default: 1.0 GPa
************************** End of input data file *****************************

reinit: -----------------------------------------------------------------------
reinit: System Name: GRP_doping
reinit: -----------------------------------------------------------------------
reinit: System Label: GRP_doping
reinit: -----------------------------------------------------------------------

initatom: Reading input for the pseudopotentials and atomic orbitals ----------
 Species number:            1  Label: B Atomic number:           5
 Species number:            2  Label: C Atomic number:           6
Ground state valence configuration:   2s02  2p01
Reading pseudopotential information in formatted form from B.psf

Valence configuration for pseudopotential generation:
2s( 2.00) rc: 1.74
2p( 1.00) rc: 1.74
3d( 0.00) rc: 1.74
4f( 0.00) rc: 1.74
Ground state valence configuration:   2s02  2p02
Reading pseudopotential information in formatted form from C.psf

Valence configuration for pseudopotential generation:
2s( 2.00) rc: 1.54
2p( 2.00) rc: 1.54
3d( 0.00) rc: 1.54
4f( 0.00) rc: 1.54
For B, standard SIESTA heuristics set lmxkb to 3
 (one more than the basis l, including polarization orbitals).
Use PS.lmax or PS.KBprojectors blocks to override.
For C, standard SIESTA heuristics set lmxkb to 3
 (one more than the basis l, including polarization orbitals).
Use PS.lmax or PS.KBprojectors blocks to override.

<basis_specs>
B                    Z=   5    Mass=  10.810        Charge= 0.17977+309
Lmxo=1 Lmxkb= 3    BasisType=split      Semic=F
L=0  Nsemic=0  Cnfigmx=2
          n=1  nzeta=2  polorb=0
            splnorm:   0.15000
               vcte:    0.0000
               rinn:    0.0000
                rcs:    0.0000      0.0000
            lambdas:    1.0000      1.0000
L=1  Nsemic=0  Cnfigmx=2
          n=1  nzeta=2  polorb=1
            splnorm:   0.15000
               vcte:    0.0000
               rinn:    0.0000
                rcs:    0.0000      0.0000
            lambdas:    1.0000      1.0000
L=0  Nkbl=1  erefs: 0.17977+309
L=1  Nkbl=1  erefs: 0.17977+309
L=2  Nkbl=1  erefs: 0.17977+309
L=3  Nkbl=1  erefs: 0.17977+309
</basis_specs>

atom: Called for B                     (Z =   5)

read_vps: Pseudopotential generation method:
read_vps: ATM3      Troullier-Martins
Total valence charge:    3.00000

read_vps: Pseudopotential includes a core correction:
read_vps: Pseudo-core for xc-correction

xc_check: Exchange-correlation functional:
xc_check: GGA Perdew, Burke & Ernzerhof 1996
V l=0 = -2*Zval/r beyond r=  1.7165
V l=1 = -2*Zval/r beyond r=  1.7165
V l=2 = -2*Zval/r beyond r=  1.7165
V l=3 = -2*Zval/r beyond r=  1.6951
All V_l potentials equal beyond r=  1.7165
This should be close to max(r_c) in ps generation
All pots = -2*Zval/r beyond r=  1.7165

VLOCAL1: 99.0% of the norm of Vloc inside     14.733 Ry
VLOCAL1: 99.9% of the norm of Vloc inside     33.577 Ry
atom: Maximum radius for 4*pi*r*r*local-pseudopot. charge    2.04484
atom: Maximum radius for r*vlocal+2*Zval:    1.75994
GHOST: No ghost state for L =  0
GHOST: No ghost state for L =  1
GHOST: No ghost state for L =  2
GHOST: No ghost state for L =  3

KBgen: Kleinman-Bylander projectors:
   l= 0   rc=  1.897051   el= -0.693730   Ekb=  4.595746   kbcos=  0.286105
   l= 1   rc=  1.920920   el= -0.265236   Ekb= -2.350715   kbcos= -0.315747
   l= 2   rc=  2.044840   el=  0.002055   Ekb= -0.690767   kbcos= -0.013822
   l= 3   rc=  2.149707   el=  0.003188   Ekb= -0.315358   kbcos= -0.002055

KBgen: Total number of  Kleinman-Bylander projectors:   16
atom: -------------------------------------------------------------------------

atom: SANKEY-TYPE ORBITALS:
atom: Selected multiple-zeta basis: split

SPLIT: Orbitals with angular momentum L= 0

SPLIT: Basis orbitals for state 2s

SPLIT: PAO cut-off radius determined from an
SPLIT: energy shift=  0.007350 Ry

   izeta = 1
                 lambda =    1.000000
                     rc =    5.422032
                 energy =   -0.686029
                kinetic =    0.576707
    potential(screened) =   -1.262736
       potential(ionic) =   -3.271094

   izeta = 2
                 rmatch =    4.222573
              splitnorm =    0.150000
                 energy =   -0.602132
                kinetic =    0.858975
    potential(screened) =   -1.461107
       potential(ionic) =   -3.582536

[...]

SPLIT: Basis orbitals for state 2p

[...]

POLgen: Perturbative polarization orbital with L=  2

POLgen: Polarization orbital for state 2p

   izeta = 1
                     rc =    6.790259
                 energy =    0.684082
                kinetic =    1.471481
    potential(screened) =   -0.787399
       potential(ionic) =   -2.406985
atom: Total number of Sankey-type orbitals: 13

atm_pop: Valence configuration (for local Pseudopot. screening):
 2s( 2.00)
 2p( 1.00)
Vna: chval, zval:    3.00000   3.00000

Vna:  Cut-off radius for the neutral-atom potential:   6.790259
comcore: Pseudo-core radius Rcore=  2.122997

atom: _________________________________________________________________________

<basis_specs>
C                    Z=   6    Mass=  12.010        Charge= 0.17977+309
Lmxo=1 Lmxkb= 3    BasisType=split      Semic=F
L=0  Nsemic=0  Cnfigmx=2
          n=1  nzeta=2  polorb=0
            splnorm:   0.15000
               vcte:    0.0000
               rinn:    0.0000
                rcs:    0.0000      0.0000
            lambdas:    1.0000      1.0000
L=1  Nsemic=0  Cnfigmx=2
          n=1  nzeta=2  polorb=1
            splnorm:   0.15000
               vcte:    0.0000
               rinn:    0.0000
                rcs:    0.0000      0.0000
            lambdas:    1.0000      1.0000
L=0  Nkbl=1  erefs: 0.17977+309
L=1  Nkbl=1  erefs: 0.17977+309
L=2  Nkbl=1  erefs: 0.17977+309
L=3  Nkbl=1  erefs: 0.17977+309
</basis_specs>

atom: Called for C                     (Z =   6)

read_vps: Pseudopotential generation method:
read_vps: ATM3      Troullier-Martins
Total valence charge:    4.00000

read_vps: Pseudopotential includes a core correction:
read_vps: Pseudo-core for xc-correction

xc_check: Exchange-correlation functional:
xc_check: GGA Perdew, Burke & Ernzerhof 1996
V l=0 = -2*Zval/r beyond r=  1.5227
V l=1 = -2*Zval/r beyond r=  1.5227
V l=2 = -2*Zval/r beyond r=  1.5227
V l=3 = -2*Zval/r beyond r=  1.5038
All V_l potentials equal beyond r=  1.5227
This should be close to max(r_c) in ps generation
All pots = -2*Zval/r beyond r=  1.5227

VLOCAL1: 99.0% of the norm of Vloc inside     18.722 Ry
VLOCAL1: 99.9% of the norm of Vloc inside     42.668 Ry
atom: Maximum radius for 4*pi*r*r*local-pseudopot. charge    1.83678
atom: Maximum radius for r*vlocal+2*Zval:    1.58088
GHOST: No ghost state for L =  0
GHOST: No ghost state for L =  1
GHOST: No ghost state for L =  2
GHOST: No ghost state for L =  3

KBgen: Kleinman-Bylander projectors:
   l= 0   rc=  1.704034   el= -1.009801   Ekb=  5.335044   kbcos=  0.316824
   l= 1   rc=  1.704034   el= -0.388707   Ekb= -3.785862   kbcos= -0.366464
   l= 2   rc=  1.791422   el=  0.001971   Ekb= -0.970471   kbcos= -0.009212
   l= 3   rc=  1.859892   el=  0.003065   Ekb= -0.399525   kbcos= -0.001223

KBgen: Total number of  Kleinman-Bylander projectors:   16
atom: -------------------------------------------------------------------------

atom: SANKEY-TYPE ORBITALS:
atom: Selected multiple-zeta basis: split

[...]

SPLIT: Basis orbitals for state 2s

[...]

SPLIT: Orbitals with angular momentum L= 1

SPLIT: Basis orbitals for state 2p

SPLIT: PAO cut-off radius determined from an
SPLIT: energy shift=  0.007350 Ry

   izeta = 1
                 lambda =    1.000000
                     rc =    5.658549
                 energy =   -0.381140
                kinetic =    2.399701
    potential(screened) =   -2.780841
       potential(ionic) =   -6.206085

   izeta = 2
                 rmatch =    3.653288
              splitnorm =    0.150000
                 energy =   -0.249149
                kinetic =    3.542762
    potential(screened) =   -3.791911
       potential(ionic) =   -7.581078

POLgen: Perturbative polarization orbital with L=  2

POLgen: Polarization orbital for state 2p

   izeta = 1
                     rc =    5.658549
                 energy =    1.109913
                kinetic =    2.304789
    potential(screened) =   -1.194876
       potential(ionic) =   -4.013592
atom: Total number of Sankey-type orbitals: 13

atm_pop: Valence configuration (for local Pseudopot. screening):
 2s( 2.00)
 2p( 2.00)
Vna: chval, zval:    4.00000   4.00000

Vna:  Cut-off radius for the neutral-atom potential:   5.658549
comcore: Pseudo-core radius Rcore=  1.791422

atom: _________________________________________________________________________

prinput: Basis input ----------------------------------------------------------

PAO.BasisType split

%block ChemicalSpeciesLabel
    1    5 B                       # Species index, atomic number, species label
    2    6 C                       # Species index, atomic number, species label
%endblock ChemicalSpeciesLabel

%block PAO.Basis                 # Define Basis set
B                     2                    # Species label, number of l-shells
 n=2   0   2                         # n, l, Nzeta
   5.422      4.223
   1.000      1.000
[...]
siesta:     32.50291  13.41944   0.00000  1        3
siesta:     27.84639   5.35379   0.00000  1        4
siesta:     27.84714  21.48508   0.00000  1        5
siesta:     11.54782   1.32097   0.00000  1        6
siesta:     20.86199   1.32097   0.00000  1        7
siesta:      6.89193   6.69743   0.00000  1        8
siesta:      9.21994   5.35379   0.00000  1        9
siesta:     16.20421   6.69743   0.00000  1       10
siesta:     18.53411   5.35379   0.00000  1       11
siesta:     25.51838   6.69743   0.00000  1       12
siesta:      6.89205   9.38661   0.00000  1       13
siesta:     16.20434   9.38661   0.00000  1       14
siesta:     11.54845  14.76308   0.00000  1       15
siesta:     13.87645  13.41944   0.00000  1       16
siesta:     20.86262  14.76308   0.00000  1       17
siesta:     11.54857  17.45226   0.00000  1       18
siesta:     16.20496  22.82873   0.00000  1       19
siesta:     18.53486  21.48508   0.00000  1       20
siesta:     25.51851   9.38661   0.00000  1       21
siesta:     23.19063  13.41944   0.00000  1       22
siesta:     20.86274  17.45226   0.00000  1       23
siesta:     30.17490  14.76308   0.00000  1       24
siesta:     25.51913  22.82873   0.00000  1       25
siesta:     30.17503  17.45226   0.00000  1       26
siesta:     37.16131  21.48508   0.00000  1       27
siesta:      4.56367   2.66461   0.00000  2       28
siesta:     32.50328  21.48508   0.00000  2       29
siesta:     34.83116  17.45226   0.00000  2       30
siesta:     37.15930  18.79590   0.00000  2       31
siesta:     34.83104  14.76308   0.00000  2       32
siesta:     30.17465   9.38661   0.00000  2       33
siesta:     32.50278  10.73026   0.00000  2       34
siesta:     30.17453   6.69743   0.00000  2       35
siesta:     30.17527  22.82873   0.00000  2       36
siesta:      6.89168   1.32097   0.00000  2       37
siesta:      9.21981   2.66461   0.00000  2       38
siesta:     13.87595   2.66461   0.00000  2       39
siesta:     16.20396   1.32097   0.00000  2       40
siesta:     18.53210   2.66461   0.00000  2       41
siesta:     23.19013   2.66461   0.00000  2       42
siesta:     25.51813   1.32097   0.00000  2       43
siesta:     27.84627   2.66461   0.00000  2       44
siesta:      4.56380   5.35379   0.00000  2       45
siesta:     11.54807   6.69743   0.00000  2       46
siesta:     13.87608   5.35379   0.00000  2       47
siesta:     20.86224   6.69743   0.00000  2       48
siesta:     23.19025   5.35379   0.00000  2       49
siesta:      9.22019  10.73026   0.00000  2       50
siesta:     11.54820   9.38661   0.00000  2       51
siesta:     13.87633  10.73026   0.00000  2       52
siesta:     18.53247  10.73026   0.00000  2       53
siesta:     20.86237   9.38661   0.00000  2       54
siesta:     23.19050  10.73026   0.00000  2       55
siesta:      9.22031  13.41944   0.00000  2       56
siesta:     16.20459  14.76308   0.00000  2       57
siesta:     18.53448  13.41944   0.00000  2       58
siesta:     13.87670  18.79590   0.00000  2       59
siesta:     16.20471  17.45226   0.00000  2       60
siesta:     18.53284  18.79590   0.00000  2       61
siesta:     13.87683  21.48508   0.00000  2       62
siesta:     20.86299  22.82873   0.00000  2       63
siesta:     27.84664  10.73026   0.00000  2       64
siesta:     25.51876  14.76308   0.00000  2       65
siesta:     23.19088  18.79590   0.00000  2       66
siesta:     27.84677  13.41944   0.00000  2       67
siesta:     25.51888  17.45226   0.00000  2       68
siesta:     27.84702  18.79590   0.00000  2       69
siesta:     23.19100  21.48508   0.00000  2       70
siesta:     32.50316  18.79590   0.00000  2       71
siesta:     39.48945  22.82873   0.00000  2       72

siesta: System type = slab

initatomlists: Number of atoms, orbitals, and projectors:     72   936  1152

siesta: ******************** Simulation parameters ****************************
siesta:
siesta: The following are some of the parameters of the simulation.
siesta: A complete list of the parameters used, including default values,
siesta: can be found in file out.fdf
siesta:
redata: Non-Collinear-spin run           =     F
redata: SpinPolarized (Up/Down) run      =     F
redata: Number of spin components        =     1
redata: Long output                      =     F
redata: Number of Atomic Species         =        2
redata: Charge density info will appear in .RHO file
redata: Write Mulliken Pop.              =     NO
redata: Mesh Cutoff                      =   200.0000  Ry
redata: Net charge of the system         =     0.0000 |e|
redata: Max. number of SCF Iter          =      500
redata: SCF convergence failure will abort job
redata: Performing Pulay mixing using    =    10 iterations
redata: Mix DM in first SCF step ?       =     F
redata: Write Pulay info on disk?        =     F
redata: Discard 1st Pulay DM after  kick =     F
redata: New DM Mixing Weight             =     0.0500
redata: New DM Occupancy tolerance       = 0.000000000001
redata: No kicks to SCF
redata: DM Mixing Weight for Kicks       =     0.5000
redata: DM Tolerance for SCF             =     0.000100
redata: Require Energy convergence for SCF =     F
redata: DM Energy tolerance for SCF      =     0.000100 eV
redata: Require Harris convergence for SCF =     F
redata: DM Harris energy tolerance for SCF =     0.000100 eV
redata: Using Saved Data (generic)   =     F
redata: Use continuation files for DM    =     T
redata: Neglect nonoverlap interactions  =     F
redata: Method of Calculation            =     Diagonalization
redata: Divide and Conquer               =     T
redata: Electronic Temperature           =     0.0019  Ry
redata: Fix the spin of the system       =     F
redata: Dynamics option                  =     Verlet MD run
redata: Initial MD time step             =        1
redata:   Final MD time step             =        1
redata: Length of MD time step           =     1.0000  fs
redata: Initial Temperature of MD run    =     0.0000  K
redata: Perform a MD quench              =     F
redata: ***********************************************************************
Total number of electrons:   261.000000
Total ionic charge:   261.000000

* ProcessorY, Blocksize:    3  24

k-point displ. along   1 input, could be:     0.50    0.00
k-point displ. along   2 input, could be:     0.50    0.00
 Kpoints in:          231 . Kpoints trimmed:          231

siesta: k-grid: Number of k-points =   231
siesta: k-grid: Cutoff (effective) =     5.000 Ang
siesta: k-grid: Supercell and displacements
siesta: k-grid:   21   0   0      0.500
siesta: k-grid:    0  21   0      0.500
siesta: k-grid:    0   0   1      0.000
Naive supercell factors:     2    2    2

superc: Internal auxiliary supercell:     2 x     2 x     2  =       8
superc: Number of atoms, orbitals, and projectors:    576   7488   9216

siesta:                 ==============================
                            Begin MD step =      1

superc: Internal auxiliary supercell:     2 x     2 x     2  =       8
superc: Number of atoms, orbitals, and projectors:    576   7488   9216

outcell: Unit cell vectors (Ang):
       14.785000    0.000000    0.000000
        7.393000   12.805052    0.000000
        0.000000    0.000000   10.000000

outcell: Cell vector modules (Ang)   :   14.785000   14.786000   10.000000
outcell: Cell angles (23,13,12) (deg):     90.0000     90.0000     60.0000
outcell: Cell volume (Ang**3)        :   1893.2269
New_DM. Step:     1
Initializing Density Matrix...

iodm: Reading Density Matrix from files

InitMesh: MESH =   120 x   120 x    90 =     1296000
InitMesh: Mesh cutoff (required, used) =   200.000   223.865 Ry

stepf: Fermi-Dirac step function

siesta: Program's energy decomposition (eV):
siesta: Ebs     =     -3330.465266
siesta: Eions   =     14945.479869
siesta: Ena     =      3358.761942
siesta: Ekin    =      6482.053040
siesta: Enl     =      -472.945219
siesta: DEna    =      -385.111142
siesta: DUscf   =        43.166540
siesta: DUext   =         0.000000
siesta: Exc     =     -4121.907990
siesta: eta*DQ  =         0.000000
siesta: Emadel  =         0.000000
siesta: Emeta   =         0.000000
siesta: Emolmec =         0.000000
siesta: Ekinion =         0.000000
siesta: Eharris =    -10041.453685
siesta: Etot    =    -10041.462698
siesta: FreeEng =    -10041.462698

siesta: E_KS(eV) =           -10041.4543

siesta: E_KS - E_eggbox =    -10041.4543

siesta: Atomic forces (eV/Ang):
   Tot    0.093044    0.236607    0.000000
   Max    5.536993
   Res    2.467626    sqrt( Sum f_i^2 / 3N )
   Max    5.536993    constrained

Stress-tensor-Voigt (kbar):     -274.57     -241.39       -0.72      -28.35        0.00        0.00
(Free)E + p*V (eV/cell)    -9837.9916
Target enthalpy (eV/cell)   -10041.5010

siesta: Stress tensor (static) (eV/Ang**3):
        -0.171369   -0.017696    0.000000
        -0.017696   -0.150662    0.000000
         0.000000    0.000000   -0.000449

siesta: Pressure (static):        172.22522951  kBar

siesta: Stress tensor (total) (eV/Ang**3):
        -0.171369   -0.017696    0.000000
        -0.017696   -0.150662    0.000000
         0.000000    0.000000   -0.000449

siesta: Pressure (total):        172.22522951  kBar

siesta: Temp_ion =       0.000 K

siesta: Program's energy decomposition (eV):
siesta: Ebs     =     -3330.371334
siesta: Eions   =     14945.479869
siesta: Ena     =      3358.761942
siesta: Ekin    =      6482.147996
siesta: Enl     =      -472.966170
siesta: DEna    =      -385.166941
siesta: DUscf   =        43.174239
siesta: DUext   =         0.000000
siesta: Exc     =     -4121.925457
siesta: eta*DQ  =         0.000000
siesta: Emadel  =         0.000000
siesta: Emeta   =         0.000000
siesta: Emolmec =         0.000000
siesta: Ekinion =         0.000000
siesta: Eharris =    -10041.453687
siesta: Etot    =    -10041.454258
siesta: FreeEng =    -10041.500980

siesta: Final energy (eV):
siesta:  Band Struct. =   -3330.371334
siesta:       Kinetic =    6482.147996
siesta:       Hartree =   18831.716055
siesta:    Ext. field =       0.000000
siesta:   Exch.-corr. =   -4121.925457
siesta:  Ion-electron =  -43511.969277
siesta:       Ion-ion =   12278.576424
siesta:       Ekinion =       0.000000
siesta:         Total =  -10041.454258

siesta: Atomic forces (eV/Ang):
siesta:      1    0.898145    5.233928    0.000000
siesta:      2   -5.501376   -3.171193    0.000000
siesta:      3    5.006753   -1.836846    0.000000
siesta:      4    5.006384   -1.835081    0.000000
siesta:      5    5.002739   -1.832253    0.000000
siesta:      6    0.898220    5.228698    0.000000
siesta:      7    0.885726    5.242131    0.000000
siesta:      8   -5.529561   -3.176710    0.000000
siesta:      9    5.002152   -1.834012    0.000000
siesta:     10   -5.493889   -3.200589    0.000000
siesta:     11    4.973606   -1.815913    0.000000
siesta:     12   -5.525589   -3.178245    0.000000
siesta:     13    0.890049    5.262054    0.000000
siesta:     14    0.912361    5.255377    0.000000
siesta:     15   -5.530028   -3.176791    0.000000
siesta:     16    5.007876   -1.834616    0.000000
siesta:     17   -5.536993   -3.177306    0.000000
siesta:     18    0.892592    5.263537    0.000000
siesta:     19   -5.495963   -3.172787    0.000000
siesta:     20    4.975284   -1.813238    0.000000
siesta:     21    0.903455    5.254583    0.000000
siesta:     22    5.004930   -1.835191    0.000000
siesta:     23    0.879975    5.270231    0.000000
siesta:     24   -5.526334   -3.177130    0.000000
siesta:     25   -5.520178   -3.150848    0.000000
siesta:     26    0.903567    5.255641    0.000000
siesta:     27    4.971193   -1.811077    0.000000
siesta:     28    2.348739    1.816567    0.000000
siesta:     29   -2.275771   -1.321338    0.000000
siesta:     30    0.970387    0.551658    0.000000
siesta:     31   -4.154005   -2.392788    0.000000
siesta:     32    2.768326    1.121722    0.000000
siesta:     33    0.968992    0.549285    0.000000
siesta:     34   -4.151817   -2.394962    0.000000
siesta:     35    2.768044    1.120917    0.000000
siesta:     36    2.752408    1.145643    0.000000
siesta:     37    0.970619    0.532589    0.000000
siesta:     38   -4.165093   -2.392014    0.000000
siesta:     39    2.353711    1.815749    0.000000
siesta:     40    0.975618    0.532838    0.000000
siesta:     41   -4.141175   -2.407146    0.000000
siesta:     42    2.345991    1.817193    0.000000
siesta:     43    0.973152    0.532177    0.000000
siesta:     44   -4.154515   -2.400329    0.000000
siesta:     45   -2.292739   -1.320726    0.000000
siesta:     46    2.756335    1.125471    0.000000
siesta:     47   -2.277090   -1.326130    0.000000
siesta:     48    2.748536    1.128348    0.000000
siesta:     49   -2.278539   -1.325864    0.000000
siesta:     50    2.350640    1.822839    0.000000
siesta:     51    0.967501    0.551068    0.000000
siesta:     52   -4.166256   -2.389265    0.000000
siesta:     53    2.384853    1.814586    0.000000
siesta:     54    0.941726    0.557675    0.000000
siesta:     55   -4.170885   -2.387498    0.000000
siesta:     56   -2.292930   -1.320670    0.000000
siesta:     57    2.780505    1.117808    0.000000
siesta:     58   -2.311850   -1.318987    0.000000
siesta:     59    2.347348    1.820679    0.000000
siesta:     60    0.973965    0.548926    0.000000
siesta:     61   -4.139148   -2.400269    0.000000
siesta:     62   -2.261386   -1.326793    0.000000
siesta:     63    2.747881    1.144363    0.000000
siesta:     64    2.352778    1.820881    0.000000
siesta:     65    2.755871    1.126250    0.000000
siesta:     66    2.347722    1.821453    0.000000
siesta:     67   -2.282043   -1.325755    0.000000
siesta:     68    0.966048    0.551388    0.000000
siesta:     69   -4.164113   -2.389040    0.000000
siesta:     70   -2.283367   -1.319901    0.000000
siesta:     71    2.350686    1.820997    0.000000
siesta:     72    2.732291    1.150657    0.000000
siesta: ----------------------------------------
siesta:    Tot    0.093044    0.236607    0.000000

siesta: Stress tensor (static) (eV/Ang**3):
siesta:    -0.171369   -0.017696    0.000000
siesta:    -0.017696   -0.150662    0.000000
siesta:     0.000000    0.000000   -0.000449

siesta: Cell volume =       1893.226895 Ang**3

siesta: Pressure (static):
siesta:                Solid            Molecule  Units
siesta:           0.00117074          0.00129661  Ry/Bohr**3
siesta:           0.10749337          0.11905011  eV/Ang**3
siesta:         172.22522951        190.74137079  kBar
(Free)E+ p_basis*V_orbitals  =      -10002.232622
(Free)Eharris+ p_basis*V_orbitals  =      -10002.230073

siesta: Electric dipole (a.u.)  =    0.000000    0.000000    0.000000
siesta: Electric dipole (Debye) =    0.000000    0.000000    0.000000

elaps:  Routine       Calls   Time/call    Tot.time        %
elaps:  siesta            1     392.364     392.364   100.00
elaps:  Setup             1       0.274       0.274     0.07
elaps:  bands             1       0.001       0.001     0.00
elaps:  writewave         1       0.002       0.002     0.00
elaps:  KSV_init          1       0.000       0.000     0.00
elaps:  IterMD            1     391.552     391.552    99.79
elaps:  hsparse           1       0.028       0.028     0.01
elaps:  overlap           1       0.714       0.714     0.18
elaps:  IterSCF           4      94.482     377.926    96.32
elaps:  kinefsm           2       0.368       0.735     0.19
elaps:  nlefsm            2       1.903       3.805     0.97
elaps:  DHSCF             5       8.460      42.299    10.78
elaps:  DHSCF1            1       0.101       0.101     0.03
elaps:  DHSCF2            1       2.805       2.805     0.71
elaps:  REORD            42       0.000       0.012     0.00
elaps:  POISON            6       0.040       0.238     0.06
elaps:  DHSCF3            5       6.974      34.871     8.89
elaps:  rhoofd            5       2.581      12.905     3.29
elaps:  cellXC            5       0.204       1.018     0.26
elaps:  vmat              5       3.610      18.048     4.60
elaps:  MolMec            2       0.000       0.000     0.00
elaps:  diagon            4      85.848     343.394    87.52
elaps:  cdiag           160       1.464     234.205    59.69
elaps:  cdiag1          160       0.069      11.110     2.83
elaps:  cdiag2          160       0.240      38.416     9.79
elaps:  cdiag3          160       1.138     182.048    46.40
elaps:  cdiag4          160       0.016       2.596     0.66
elaps:  DHSCF4            1       4.514       4.514     1.15
elaps:  dfscf             1       4.252       4.252     1.08
elaps:  overfsm           1       0.036       0.036     0.01
elaps:  optical           1       0.000       0.000     0.00

>> End of run:   6-APR-2016  14:33:50