>> Start of run:   6-APR-2016  14:04:07

reinit: Reading from standard input
************************** Dump of input data file ****************************
#(1) General system descriptors
SystemName            GRP_doping    # Descriptive name of the system
SystemLabel           GRP_doping    # Short name for naming files
%include STRUCT.fdf
%include KPT.fdf
%include BASIS.fdf
#%include TS.fdf # for transiesta calculation
#(4) DFT, Grid, SCF
XC.functional         GGA           # LDA or GGA (default = LDA)
XC.authors            PBE           # CA (Ceperley-Aldr) = PZ
                                    #    (Perdew-Zunger) - LDA - Default
                                    # PW92 (Perdew-Wang-92) - LDA
                                    # PBE (Perdew-Burke-Ernzerhof) - GGA
MeshCutoff            200.000000    Ry      # Default: 50.0 Ry ~ 0.444 Bohr
                                    #         100.0 Ry ~ 0.314 Bohr
MaxSCFIterations      500           # Default: 50
DM.MixingWeight       0.05          # Default: 0.25
DM.NumberPulay        10            # Default: 0
DM.PulayOnFile        F             # SystemLabel.P1, SystemLabel.P2
DM.Tolerance          1.d-4         # Default: 1.d-4
DM.UseSaveDM          .true.        # because of the bug
SCFMustConverge       .true.
NeglNonOverlapInt     F             # Default: F
Diag.ParallelOverK    .true.
#(5) Eigenvalue problem: order-N or diagonalization
SolutionMethod        Diagon        # or Transiesta
ElectronicTemperature 300.0 K       # Default: 300.0 K
#(6) Molecular dynamics and relaxations
#MD.TypeOfRun          CG            # Type of dynamics:
#MD.VariableCell       F
#MD.NumCGsteps         0           # 0 for single-point / 100 for gopt
#MD.MaxCGDispl         0.2 Bohr      # Default: 0.2 Bohr
#MD.MaxForceTol        0.02 eV/Ang   # Default: 0.04 eV/Ang
#MD.MaxStressTol       1.0 GPa       # Default: 1.0 GPa
************************** End of input data file *****************************

reinit: -----------------------------------------------------------------------
reinit: System Name: GRP_doping
reinit: -----------------------------------------------------------------------
reinit: System Label: GRP_doping
reinit: -----------------------------------------------------------------------

initatom: Reading input for the pseudopotentials and atomic orbitals ----------
 Species number:            1  Label: C Atomic number:           6
 Species number:            2  Label: B Atomic number:           5
Ground state valence configuration:   2s02  2p02
Reading pseudopotential information in formatted form from C.psf

Valence configuration for pseudopotential generation:
2s( 2.00) rc: 1.54
2p( 2.00) rc: 1.54
3d( 0.00) rc: 1.54
4f( 0.00) rc: 1.54
Ground state valence configuration:   2s02  2p01
Reading pseudopotential information in formatted form from B.psf

Valence configuration for pseudopotential generation:
2s( 2.00) rc: 1.74
2p( 1.00) rc: 1.74
3d( 0.00) rc: 1.74
4f( 0.00) rc: 1.74
For C, standard SIESTA heuristics set lmxkb to 3
 (one more than the basis l, including polarization orbitals).
Use PS.lmax or PS.KBprojectors blocks to override.
For B, standard SIESTA heuristics set lmxkb to 3
 (one more than the basis l, including polarization orbitals).
Use PS.lmax or PS.KBprojectors blocks to override.

<basis_specs>
C                    Z=   6    Mass=  12.010        Charge= 0.17977+309
Lmxo=1 Lmxkb= 3    BasisType=split      Semic=F
L=0  Nsemic=0  Cnfigmx=2
          n=1  nzeta=2  polorb=0
            splnorm:   0.15000
               vcte:    0.0000
               rinn:    0.0000
                rcs:    0.0000      0.0000
            lambdas:    1.0000      1.0000
L=1  Nsemic=0  Cnfigmx=2
          n=1  nzeta=2  polorb=1
            splnorm:   0.15000
               vcte:    0.0000
               rinn:    0.0000
                rcs:    0.0000      0.0000
            lambdas:    1.0000      1.0000
L=0  Nkbl=1  erefs: 0.17977+309
L=1  Nkbl=1  erefs: 0.17977+309
L=2  Nkbl=1  erefs: 0.17977+309
L=3  Nkbl=1  erefs: 0.17977+309
</basis_specs>

atom: Called for C                     (Z =   6)

read_vps: Pseudopotential generation method:
read_vps: ATM3      Troullier-Martins
Total valence charge:    4.00000

read_vps: Pseudopotential includes a core correction:
read_vps: Pseudo-core for xc-correction

xc_check: Exchange-correlation functional:
xc_check: GGA Perdew, Burke & Ernzerhof 1996
V l=0 = -2*Zval/r beyond r=  1.5227
V l=1 = -2*Zval/r beyond r=  1.5227
V l=2 = -2*Zval/r beyond r=  1.5227
V l=3 = -2*Zval/r beyond r=  1.5038
All V_l potentials equal beyond r=  1.5227
This should be close to max(r_c) in ps generation
All pots = -2*Zval/r beyond r=  1.5227

VLOCAL1: 99.0% of the norm of Vloc inside     18.722 Ry
VLOCAL1: 99.9% of the norm of Vloc inside     42.668 Ry
atom: Maximum radius for 4*pi*r*r*local-pseudopot. charge    1.83678
atom: Maximum radius for r*vlocal+2*Zval:    1.58088
GHOST: No ghost state for L =  0
GHOST: No ghost state for L =  1
GHOST: No ghost state for L =  2
GHOST: No ghost state for L =  3

KBgen: Kleinman-Bylander projectors:
   l= 0   rc=  1.704034   el= -1.009801   Ekb=  5.335044   kbcos=  0.316824
   l= 1   rc=  1.704034   el= -0.388707   Ekb= -3.785862   kbcos= -0.366464
   l= 2   rc=  1.791422   el=  0.001971   Ekb= -0.970471   kbcos= -0.009212
   l= 3   rc=  1.859892   el=  0.003065   Ekb= -0.399525   kbcos= -0.001223

KBgen: Total number of  Kleinman-Bylander projectors:   16
atom: -------------------------------------------------------------------------

atom: SANKEY-TYPE ORBITALS:
atom: Selected multiple-zeta basis: split

SPLIT: Orbitals with angular momentum L= 0

SPLIT: Basis orbitals for state 2s

SPLIT: PAO cut-off radius determined from an
SPLIT: energy shift=  0.007350 Ry

   izeta = 1
                 lambda =    1.000000
                     rc =    4.632753
                 energy =   -1.002270
                kinetic =    0.855760
    potential(screened) =   -1.858031
       potential(ionic) =   -5.417575

   izeta = 2
                 rmatch =    3.431921
              splitnorm =    0.150000
                 energy =   -0.867111
                kinetic =    1.300804
    potential(screened) =   -2.167915
       potential(ionic) =   -5.962684

[...]

SPLIT: Basis orbitals for state 2p

[...]

POLgen: Perturbative polarization orbital with L=  2

POLgen: Polarization orbital for state 2p

   izeta = 1
                     rc =    5.658549
                 energy =    1.109913
                kinetic =    2.304789
    potential(screened) =   -1.194876
       potential(ionic) =   -4.013592
atom: Total number of Sankey-type orbitals: 13

atm_pop: Valence configuration (for local Pseudopot. screening):
 2s( 2.00)
 2p( 2.00)
Vna: chval, zval:    4.00000   4.00000

Vna:  Cut-off radius for the neutral-atom potential:   5.658549
comcore: Pseudo-core radius Rcore=  1.791422

atom: _________________________________________________________________________

<basis_specs>
B                    Z=   5    Mass=  10.810        Charge= 0.17977+309
Lmxo=1 Lmxkb= 3    BasisType=split      Semic=F
L=0  Nsemic=0  Cnfigmx=2
          n=1  nzeta=2  polorb=0
            splnorm:   0.15000
               vcte:    0.0000
               rinn:    0.0000
                rcs:    0.0000      0.0000
            lambdas:    1.0000      1.0000
L=1  Nsemic=0  Cnfigmx=2
          n=1  nzeta=2  polorb=1
            splnorm:   0.15000
               vcte:    0.0000
               rinn:    0.0000
                rcs:    0.0000      0.0000
            lambdas:    1.0000      1.0000
L=0  Nkbl=1  erefs: 0.17977+309
L=1  Nkbl=1  erefs: 0.17977+309
L=2  Nkbl=1  erefs: 0.17977+309
L=3  Nkbl=1  erefs: 0.17977+309
</basis_specs>

atom: Called for B                     (Z =   5)

read_vps: Pseudopotential generation method:
read_vps: ATM3      Troullier-Martins
Total valence charge:    3.00000

read_vps: Pseudopotential includes a core correction:
read_vps: Pseudo-core for xc-correction

xc_check: Exchange-correlation functional:
xc_check: GGA Perdew, Burke & Ernzerhof 1996
V l=0 = -2*Zval/r beyond r=  1.7165
V l=1 = -2*Zval/r beyond r=  1.7165
V l=2 = -2*Zval/r beyond r=  1.7165
V l=3 = -2*Zval/r beyond r=  1.6951
All V_l potentials equal beyond r=  1.7165
This should be close to max(r_c) in ps generation
All pots = -2*Zval/r beyond r=  1.7165

VLOCAL1: 99.0% of the norm of Vloc inside     14.733 Ry
VLOCAL1: 99.9% of the norm of Vloc inside     33.577 Ry
atom: Maximum radius for 4*pi*r*r*local-pseudopot. charge    2.04484
atom: Maximum radius for r*vlocal+2*Zval:    1.75994
GHOST: No ghost state for L =  0
GHOST: No ghost state for L =  1
GHOST: No ghost state for L =  2
GHOST: No ghost state for L =  3

KBgen: Kleinman-Bylander projectors:
   l= 0   rc=  1.897051   el= -0.693730   Ekb=  4.595746   kbcos=  0.286105
   l= 1   rc=  1.920920   el= -0.265236   Ekb= -2.350715   kbcos= -0.315747
   l= 2   rc=  2.044840   el=  0.002055   Ekb= -0.690767   kbcos= -0.013822
   l= 3   rc=  2.149707   el=  0.003188   Ekb= -0.315358   kbcos= -0.002055

KBgen: Total number of  Kleinman-Bylander projectors:   16
atom: -------------------------------------------------------------------------

atom: SANKEY-TYPE ORBITALS:
atom: Selected multiple-zeta basis: split

[...]

SPLIT: Basis orbitals for state 2s

[...]

SPLIT: Orbitals with angular momentum L= 1

SPLIT: Basis orbitals for state 2p

SPLIT: PAO cut-off radius determined from an
SPLIT: energy shift=  0.007350 Ry

   izeta = 1
                 lambda =    1.000000
                     rc =    6.790259
                 energy =   -0.258578
                kinetic =    1.481412
    potential(screened) =   -1.739989
       potential(ionic) =   -3.657461

   izeta = 2
                 rmatch =    4.608740
              splitnorm =    0.150000
                 energy =   -0.173757
                kinetic =    2.186690
    potential(screened) =   -2.360447
       potential(ionic) =   -4.464260

POLgen: Perturbative polarization orbital with L=  2

POLgen: Polarization orbital for state 2p

   izeta = 1
                     rc =    6.790259
                 energy =    0.684082
                kinetic =    1.471481
    potential(screened) =   -0.787399
       potential(ionic) =   -2.406985
atom: Total number of Sankey-type orbitals: 13

atm_pop: Valence configuration (for local Pseudopot. screening):
 2s( 2.00)
 2p( 1.00)
Vna: chval, zval:    3.00000   3.00000

Vna:  Cut-off radius for the neutral-atom potential:   6.790259
comcore: Pseudo-core radius Rcore=  2.122997

atom: _________________________________________________________________________

prinput: Basis input ----------------------------------------------------------

PAO.BasisType split

%block ChemicalSpeciesLabel
    1    6 C                       # Species index, atomic number, species label
    2    5 B                       # Species index, atomic number, species label
%endblock ChemicalSpeciesLabel

%block PAO.Basis                 # Define Basis set
C                     2                    # Species label, number of l-shells
 n=2   0   2                         # n, l, Nzeta
   4.633      3.432
   1.000      1.000
[...]
siesta:     32.50291  13.41944   0.00000  1        7
siesta:     34.83104  14.76308   0.00000  1        8
siesta:     30.17465   9.38661   0.00000  1        9
siesta:     32.50278  10.73026   0.00000  1       10
siesta:     27.84639   5.35379   0.00000  1       11
siesta:     30.17453   6.69743   0.00000  1       12
siesta:     27.84714  21.48508   0.00000  1       13
siesta:     30.17527  22.82873   0.00000  1       14
siesta:      6.89168   1.32097   0.00000  1       15
siesta:      9.21981   2.66461   0.00000  1       16
siesta:     11.54782   1.32097   0.00000  1       17
siesta:     13.87595   2.66461   0.00000  1       18
siesta:     16.20396   1.32097   0.00000  1       19
siesta:     18.53210   2.66461   0.00000  1       20
siesta:     20.86199   1.32097   0.00000  1       21
siesta:     23.19013   2.66461   0.00000  1       22
siesta:     25.51813   1.32097   0.00000  1       23
siesta:     27.84627   2.66461   0.00000  1       24
siesta:      4.56380   5.35379   0.00000  1       25
siesta:      6.89193   6.69743   0.00000  1       26
siesta:      9.21994   5.35379   0.00000  1       27
siesta:     11.54807   6.69743   0.00000  1       28
siesta:     13.87608   5.35379   0.00000  1       29
siesta:     16.20421   6.69743   0.00000  1       30
siesta:     18.53411   5.35379   0.00000  1       31
siesta:     20.86224   6.69743   0.00000  1       32
siesta:     23.19025   5.35379   0.00000  1       33
siesta:     25.51838   6.69743   0.00000  1       34
siesta:      6.89205   9.38661   0.00000  1       35
siesta:      9.22019  10.73026   0.00000  1       36
siesta:     11.54820   9.38661   0.00000  1       37
siesta:     13.87633  10.73026   0.00000  1       38
siesta:     16.20434   9.38661   0.00000  1       39
siesta:      9.22031  13.41944   0.00000  1       40
siesta:     11.54845  14.76308   0.00000  1       41
siesta:     13.87645  13.41944   0.00000  1       42
siesta:     16.20459  14.76308   0.00000  1       43
siesta:     18.53448  13.41944   0.00000  1       44
siesta:     20.86262  14.76308   0.00000  1       45
siesta:     11.54857  17.45226   0.00000  1       46
siesta:     13.87670  18.79590   0.00000  1       47
siesta:     16.20471  17.45226   0.00000  1       48
siesta:     18.53284  18.79590   0.00000  1       49
siesta:     13.87683  21.48508   0.00000  1       50
siesta:     16.20496  22.82873   0.00000  1       51
siesta:     18.53486  21.48508   0.00000  1       52
siesta:     20.86299  22.82873   0.00000  1       53
siesta:     25.51851   9.38661   0.00000  1       54
siesta:     27.84664  10.73026   0.00000  1       55
siesta:     23.19063  13.41944   0.00000  1       56
siesta:     25.51876  14.76308   0.00000  1       57
siesta:     20.86274  17.45226   0.00000  1       58
siesta:     23.19088  18.79590   0.00000  1       59
siesta:     27.84677  13.41944   0.00000  1       60
siesta:     30.17490  14.76308   0.00000  1       61
siesta:     25.51888  17.45226   0.00000  1       62
siesta:     27.84702  18.79590   0.00000  1       63
siesta:     23.19100  21.48508   0.00000  1       64
siesta:     25.51913  22.82873   0.00000  1       65
siesta:     30.17503  17.45226   0.00000  1       66
siesta:     32.50316  18.79590   0.00000  1       67
siesta:     37.16131  21.48508   0.00000  1       68
siesta:     39.48945  22.82873   0.00000  1       69
siesta:     18.53247  10.73026   0.00000  2       70
siesta:     20.86237   9.38661   0.00000  2       71
siesta:     23.19050  10.73026   0.00000  2       72

siesta: System type = slab

initatomlists: Number of atoms, orbitals, and projectors:     72   936  1152

siesta: ******************** Simulation parameters ****************************
siesta:
siesta: The following are some of the parameters of the simulation.
siesta: A complete list of the parameters used, including default values,
siesta: can be found in file out.fdf
siesta:
redata: Non-Collinear-spin run           =     F
redata: SpinPolarized (Up/Down) run      =     F
redata: Number of spin components        =     1
redata: Long output                      =     F
redata: Number of Atomic Species         =        2
redata: Charge density info will appear in .RHO file
redata: Write Mulliken Pop.              =     NO
redata: Mesh Cutoff                      =   200.0000  Ry
redata: Net charge of the system         =     0.0000 |e|
redata: Max. number of SCF Iter          =      500
redata: SCF convergence failure will abort job
redata: Performing Pulay mixing using    =    10 iterations
redata: Mix DM in first SCF step ?       =     F
redata: Write Pulay info on disk?        =     F
redata: Discard 1st Pulay DM after  kick =     F
redata: New DM Mixing Weight             =     0.0500
redata: New DM Occupancy tolerance       = 0.000000000001
redata: No kicks to SCF
redata: DM Mixing Weight for Kicks       =     0.5000
redata: DM Tolerance for SCF             =     0.000100
redata: Require Energy convergence for SCF =     F
redata: DM Energy tolerance for SCF      =     0.000100 eV
redata: Require Harris convergence for SCF =     F
redata: DM Harris energy tolerance for SCF =     0.000100 eV
redata: Using Saved Data (generic)   =     F
redata: Use continuation files for DM    =     T
redata: Neglect nonoverlap interactions  =     F
redata: Method of Calculation            =     Diagonalization
redata: Divide and Conquer               =     T
redata: Electronic Temperature           =     0.0019  Ry
redata: Fix the spin of the system       =     F
redata: Dynamics option                  =     Verlet MD run
redata: Initial MD time step             =        1
redata:   Final MD time step             =        1
redata: Length of MD time step           =     1.0000  fs
redata: Initial Temperature of MD run    =     0.0000  K
redata: Perform a MD quench              =     F
redata: ***********************************************************************
Total number of electrons:   285.000000
Total ionic charge:   285.000000

* ProcessorY, Blocksize:    3  24

k-point displ. along   1 input, could be:     0.50    0.00
k-point displ. along   2 input, could be:     0.50    0.00
 Kpoints in:          231 . Kpoints trimmed:          231

siesta: k-grid: Number of k-points =   231
siesta: k-grid: Cutoff (effective) =     5.000 Ang
siesta: k-grid: Supercell and displacements
siesta: k-grid:   21   0   0      0.500
siesta: k-grid:    0  21   0      0.500
siesta: k-grid:    0   0   1      0.000
Naive supercell factors:     2    2    2

superc: Internal auxiliary supercell:     2 x     2 x     2  =       8
superc: Number of atoms, orbitals, and projectors:    576   7488   9216

siesta:                 ==============================
                            Begin MD step =      1

superc: Internal auxiliary supercell:     2 x     2 x     2  =       8
superc: Number of atoms, orbitals, and projectors:    576   7488   9216

outcell: Unit cell vectors (Ang):
       14.785000    0.000000    0.000000
        7.393000   12.805052    0.000000
        0.000000    0.000000   10.000000

outcell: Cell vector modules (Ang)   :   14.785000   14.786000   10.000000
outcell: Cell angles (23,13,12) (deg):     90.0000     90.0000     60.0000
outcell: Cell volume (Ang**3)        :   1893.2269
New_DM. Step:     1
Initializing Density Matrix...

iodm: Reading Density Matrix from files

InitMesh: MESH =   120 x   120 x    90 =     1296000
InitMesh: Mesh cutoff (required, used) =   200.000   223.865 Ry

stepf: Fermi-Dirac step function

siesta: Program's energy decomposition (eV):
siesta: Ebs     =     -3858.607428
siesta: Eions   =     18018.840937
siesta: Ena     =      3907.486508
siesta: Ekin    =      7687.644799
siesta: Enl     =      -757.882123
siesta: DEna    =      -301.844110
siesta: DUscf   =        28.620464
siesta: DUext   =         0.000000
siesta: Exc     =     -4049.603210
siesta: eta*DQ  =         0.000000
siesta: Emadel  =         0.000000
siesta: Emeta   =         0.000000
siesta: Emolmec =         0.000000
siesta: Ekinion =         0.000000
siesta: Eharris =    -11504.418578
siesta: Etot    =    -11504.418608
siesta: FreeEng =    -11504.418608

siesta: E_KS(eV) =           -11504.4186

siesta: E_KS - E_eggbox =    -11504.4186

siesta: Atomic forces (eV/Ang):
   Tot    0.188476   -0.282769    0.000000
   Max    5.175034
   Res    0.799218    sqrt( Sum f_i^2 / 3N )
   Max    5.175034    constrained

Stress-tensor-Voigt (kbar):      -63.72      -62.77       -0.08       -0.45        0.00        0.00
(Free)E + p*V (eV/cell)   -11454.5942
Target enthalpy (eV/cell)   -11504.4495

siesta: Stress tensor (static) (eV/Ang**3):
        -0.039772   -0.000283    0.000000
        -0.000283   -0.039179    0.000000
         0.000000    0.000000   -0.000049

siesta: Pressure (static):         42.19138241  kBar

siesta: Stress tensor (total) (eV/Ang**3):
        -0.039772   -0.000283    0.000000
        -0.000283   -0.039179    0.000000
         0.000000    0.000000   -0.000049

siesta: Pressure (total):         42.19138241  kBar

siesta: Temp_ion =       0.000 K

Computing bands...
*** Note: ParallelOverK option not used for Bands

siesta: Program's energy decomposition (eV):
siesta: Ebs     =     -3858.607316
siesta: Eions   =     18018.840937
siesta: Ena     =      3907.486508
siesta: Ekin    =      7687.643952
siesta: Enl     =      -757.881848
siesta: DEna    =      -301.843462
siesta: DUscf   =        28.620227
siesta: DUext   =         0.000000
siesta: Exc     =     -4049.603051
siesta: eta*DQ  =         0.000000
siesta: Emadel  =         0.000000
siesta: Emeta   =         0.000000
siesta: Emolmec =         0.000000
siesta: Ekinion =         0.000000
siesta: Eharris =    -11504.418623
siesta: Etot    =    -11504.418611
siesta: FreeEng =    -11504.449493

siesta: Final energy (eV):
siesta:  Band Struct. =   -3858.607316
siesta:       Kinetic =    7687.643952
siesta:       Hartree =   22646.461604
siesta:    Ext. field =       0.000000
siesta:   Exch.-corr. =   -4049.603051
siesta:  Ion-electron =  -52358.522624
siesta:       Ion-ion =   14569.601509
siesta:       Ekinion =       0.000000
siesta:         Total =  -11504.418611

siesta: Atomic forces (eV/Ang):
siesta:      1   -0.224744   -0.054594    0.000000
siesta:      2    0.094014    0.063751    0.000000
siesta:      3    0.108977   -0.014253    0.000000
siesta:      4    0.035861   -0.115684    0.000000
siesta:      5    0.007145    0.098549    0.000000
siesta:      6    0.022401   -0.042683    0.000000
siesta:      7    0.175322   -0.086039    0.000000
siesta:      8    0.013456   -0.131164    0.000000
siesta:      9    0.121927    0.033385    0.000000
siesta:     10    0.130877    0.002039    0.000000
siesta:     11   -0.386516    0.016730    0.000000
siesta:     12    0.063174    0.167094    0.000000
siesta:     13    0.009845    0.070362    0.000000
siesta:     14   -0.128479    0.132243    0.000000
siesta:     15    0.009639    0.057923    0.000000
siesta:     16   -0.098864    0.065022    0.000000
siesta:     17    0.221473   -0.055847    0.000000
siesta:     18   -0.121554   -0.207244    0.000000
siesta:     19   -0.039267   -0.205254    0.000000
siesta:     20   -0.133815    0.088065    0.000000
siesta:     21   -0.029918    0.086494    0.000000
siesta:     22    0.167544    0.092015    0.000000
siesta:     23    0.065470   -0.205433    0.000000
siesta:     24    0.128973   -0.209222    0.000000
siesta:     25    0.022690   -0.015919    0.000000
siesta:     26   -0.003359   -0.015875    0.000000
siesta:     27   -0.022801   -0.021581    0.000000
siesta:     28   -0.057142    0.168933    0.000000
siesta:     29    0.404803    0.017436    0.000000
siesta:     30   -1.082835    0.394557    0.000000
siesta:     31    0.950692   -0.731716    0.000000
siesta:     32   -0.009358   -3.508057    0.000000
siesta:     33   -0.977961   -0.740097    0.000000
siesta:     34    1.111598    0.399382    0.000000
siesta:     35   -0.007532    0.058800    0.000000
siesta:     36   -0.120993    0.008960    0.000000
siesta:     37   -0.104689    0.034511    0.000000
siesta:     38   -0.040613   -0.549122    0.000000
siesta:     39   -3.083176   -1.565449    0.000000
siesta:     40   -0.174448   -0.079164    0.000000
siesta:     41    0.327795   -0.113002    0.000000
siesta:     42   -0.316178    0.132479    0.000000
siesta:     43    0.664591    0.305543    0.000000
siesta:     44   -0.866196    3.123652    0.000000
siesta:     45   -0.005091    0.905423    0.000000
siesta:     46   -0.047423    0.051307    0.000000
siesta:     47    0.101905    0.004579    0.000000
siesta:     48   -0.311769    0.085442    0.000000
siesta:     49    0.033290    0.065911    0.000000
siesta:     50    0.023125    0.066256    0.000000
siesta:     51   -0.022138    0.014436    0.000000
siesta:     52   -0.060685   -0.048701    0.000000
siesta:     53   -0.008222   -0.049530    0.000000
siesta:     54    3.090329   -1.558271    0.000000
siesta:     55    0.040816   -0.549617    0.000000
siesta:     56    0.849404    3.113465    0.000000
siesta:     57   -0.639061    0.313440    0.000000
siesta:     58   -0.024153   -0.016575    0.000000
siesta:     59   -0.000281    0.074459    0.000000
siesta:     60    0.330835    0.131000    0.000000
siesta:     61   -0.331563   -0.114072    0.000000
siesta:     62    0.326904    0.083975    0.000000
siesta:     63   -0.108119    0.004479    0.000000
siesta:     64    0.035217   -0.054491    0.000000
siesta:     65    0.053427    0.020016    0.000000
siesta:     66    0.048310    0.047908    0.000000
siesta:     67    0.000077   -0.041602    0.000000
siesta:     68   -0.133131   -0.010317    0.000000
siesta:     69    0.099620    0.135363    0.000000
siesta:     70   -3.861854    2.624666    0.000000
siesta:     71   -0.024883   -5.175034    0.000000
siesta:     72    3.905761    2.642794    0.000000
siesta: ----------------------------------------
siesta:    Tot    0.188476   -0.282769    0.000000

siesta: Stress tensor (static) (eV/Ang**3):
siesta:    -0.039772   -0.000283    0.000000
siesta:    -0.000283   -0.039179    0.000000
siesta:     0.000000    0.000000   -0.000049

siesta: Cell volume =       1893.226895 Ang**3

siesta: Pressure (static):
siesta:                Solid            Molecule  Units
siesta:           0.00028681          0.00016281  Ry/Bohr**3
siesta:           0.02633350          0.01494897  eV/Ang**3
siesta:          42.19138241         23.95115725  kBar
(Free)E+ p_basis*V_orbitals  =      -11472.764014
(Free)Eharris+ p_basis*V_orbitals  =      -11472.764030

siesta: Electric dipole (a.u.)  =    0.000000    0.000000    0.000000
siesta: Electric dipole (Debye) =    0.000000    0.000000    0.000000

elaps:  Routine       Calls   Time/call    Tot.time        %
elaps:  siesta            1     411.484     411.484   100.00
elaps:  Setup             1       0.276       0.276     0.07
elaps:  bands             3      37.539     112.618    27.37
elaps:  writewave         1       0.002       0.002     0.00
elaps:  KSV_init          1       0.000       0.000     0.00
elaps:  IterMD            1     298.047     298.047    72.43
elaps:  hsparse           1       0.028       0.028     0.01
elaps:  overlap           1       0.374       0.374     0.09
elaps:  IterSCF           3      95.302     285.907    69.48
elaps:  kinefsm           2       0.281       0.563     0.14
elaps:  nlefsm            2       2.017       4.033     0.98
elaps:  DHSCF             4       7.214      28.856     7.01
elaps:  DHSCF1            1       0.112       0.112     0.03
elaps:  DHSCF2            1       2.904       2.904     0.71
elaps:  REORD            34       0.000       0.010     0.00
elaps:  POISON            5       0.059       0.295     0.07
elaps:  DHSCF3            4       5.547      22.187     5.39
elaps:  rhoofd            4       1.981       7.924     1.93
elaps:  cellXC            4       0.219       0.876     0.21
elaps:  vmat              4       2.818      11.274     2.74
elaps:  MolMec            2       0.000       0.000     0.00
elaps:  diagon            3      87.305     261.916    63.65
elaps:  cdiag           241       1.189     286.514    69.63
elaps:  cdiag1          241       0.071      17.019     4.14
elaps:  cdiag2          241       0.292      70.373    17.10
elaps:  cdiag3          241       0.817     196.911    47.85
elaps:  cdiag4          241       0.009       2.162     0.53
elaps:  DHSCF4            1       3.647       3.647     0.89
elaps:  dfscf             1       3.262       3.262     0.79
elaps:  overfsm           1       0.029       0.029     0.01
elaps:  c-eigval        121       0.930     112.549    27.35
elaps:  c-buildHS       121       0.003       0.366     0.09
elaps:  optical           1       0.000       0.000     0.00

>> End of run:   6-APR-2016  14:10:59