>> Start of run:   6-APR-2016  14:08:58

reinit: Reading from standard input
************************** Dump of input data file ****************************
#(1) General system descriptors
SystemName            GRP_doping    # Descriptive name of the system
SystemLabel           GRP_doping    # Short name for naming files
%include STRUCT.fdf
%include KPT.fdf
%include BASIS.fdf
#%include TS.fdf # for transiesta calculation
#(4) DFT, Grid, SCF
XC.functional         GGA           # LDA or GGA (default = LDA)
XC.authors            PBE           # CA (Ceperley-Aldr) = PZ
                                    #    (Perdew-Zunger) - LDA - Default
                                    # PW92 (Perdew-Wang-92) - LDA
                                    # PBE (Perdew-Burke-Ernzerhof) - GGA
MeshCutoff            200.000000    Ry      # Default: 50.0 Ry ~ 0.444 Bohr
                                    #         100.0 Ry ~ 0.314 Bohr
MaxSCFIterations      500           # Default: 50
DM.MixingWeight       0.05          # Default: 0.25
DM.NumberPulay        10            # Default: 0
DM.PulayOnFile        F             # SystemLabel.P1, SystemLabel.P2
DM.Tolerance          1.d-4         # Default: 1.d-4
DM.UseSaveDM          .true.        # because of the bug
SCFMustConverge       .true.
NeglNonOverlapInt     F             # Default: F
Diag.ParallelOverK    .true.
#(5) Eigenvalue problem: order-N or diagonalization
SolutionMethod        Diagon        # or Transiesta
ElectronicTemperature 300.0 K       # Default: 300.0 K
#(6) Molecular dynamics and relaxations
#MD.TypeOfRun          CG            # Type of dynamics:
#MD.VariableCell       F
#MD.NumCGsteps         0           # 0 for single-point / 100 for gopt
#MD.MaxCGDispl         0.2 Bohr      # Default: 0.2 Bohr
#MD.MaxForceTol        0.02 eV/Ang   # Default: 0.04 eV/Ang
#MD.MaxStressTol       1.0 GPa       # Default: 1.0 GPa
************************** End of input data file *****************************

reinit: -----------------------------------------------------------------------
reinit: System Name: GRP_doping
reinit: -----------------------------------------------------------------------
reinit: System Label: GRP_doping
reinit: -----------------------------------------------------------------------

initatom: Reading input for the pseudopotentials and atomic orbitals ----------
 Species number:            1  Label: C Atomic number:           6
 Species number:            2  Label: B Atomic number:           5
Ground state valence configuration:   2s02  2p02
Reading pseudopotential information in formatted form from C.psf

Valence configuration for pseudopotential generation:
2s( 2.00) rc: 1.54
2p( 2.00) rc: 1.54
3d( 0.00) rc: 1.54
4f( 0.00) rc: 1.54
Ground state valence configuration:   2s02  2p01
Reading pseudopotential information in formatted form from B.psf

Valence configuration for pseudopotential generation:
2s( 2.00) rc: 1.74
2p( 1.00) rc: 1.74
3d( 0.00) rc: 1.74
4f( 0.00) rc: 1.74
For C, standard SIESTA heuristics set lmxkb to 3
 (one more than the basis l, including polarization orbitals).
Use PS.lmax or PS.KBprojectors blocks to override.
For B, standard SIESTA heuristics set lmxkb to 3
 (one more than the basis l, including polarization orbitals).
Use PS.lmax or PS.KBprojectors blocks to override.

<basis_specs>
C                    Z=   6    Mass=  12.010        Charge= 0.17977+309
Lmxo=1 Lmxkb= 3    BasisType=split      Semic=F
L=0  Nsemic=0  Cnfigmx=2
          n=1  nzeta=2  polorb=0
            splnorm:   0.15000
               vcte:    0.0000
               rinn:    0.0000
                rcs:    0.0000      0.0000
            lambdas:    1.0000      1.0000
L=1  Nsemic=0  Cnfigmx=2
          n=1  nzeta=2  polorb=1
            splnorm:   0.15000
               vcte:    0.0000
               rinn:    0.0000
                rcs:    0.0000      0.0000
            lambdas:    1.0000      1.0000
L=0  Nkbl=1  erefs: 0.17977+309
L=1  Nkbl=1  erefs: 0.17977+309
L=2  Nkbl=1  erefs: 0.17977+309
L=3  Nkbl=1  erefs: 0.17977+309
</basis_specs>

atom: Called for C                     (Z =   6)

read_vps: Pseudopotential generation method:
read_vps: ATM3      Troullier-Martins
Total valence charge:    4.00000

read_vps: Pseudopotential includes a core correction:
read_vps: Pseudo-core for xc-correction

xc_check: Exchange-correlation functional:
xc_check: GGA Perdew, Burke & Ernzerhof 1996
V l=0 = -2*Zval/r beyond r=  1.5227
V l=1 = -2*Zval/r beyond r=  1.5227
V l=2 = -2*Zval/r beyond r=  1.5227
V l=3 = -2*Zval/r beyond r=  1.5038
All V_l potentials equal beyond r=  1.5227
This should be close to max(r_c) in ps generation
All pots = -2*Zval/r beyond r=  1.5227

VLOCAL1: 99.0% of the norm of Vloc inside     18.722 Ry
VLOCAL1: 99.9% of the norm of Vloc inside     42.668 Ry
atom: Maximum radius for 4*pi*r*r*local-pseudopot. charge    1.83678
atom: Maximum radius for r*vlocal+2*Zval:    1.58088
GHOST: No ghost state for L =  0
GHOST: No ghost state for L =  1
GHOST: No ghost state for L =  2
GHOST: No ghost state for L =  3

KBgen: Kleinman-Bylander projectors:
   l= 0   rc=  1.704034   el= -1.009801   Ekb=  5.335044   kbcos=  0.316824
   l= 1   rc=  1.704034   el= -0.388707   Ekb= -3.785862   kbcos= -0.366464
   l= 2   rc=  1.791422   el=  0.001971   Ekb= -0.970471   kbcos= -0.009212
   l= 3   rc=  1.859892   el=  0.003065   Ekb= -0.399525   kbcos= -0.001223

KBgen: Total number of  Kleinman-Bylander projectors:   16
atom: -------------------------------------------------------------------------

atom: SANKEY-TYPE ORBITALS:
atom: Selected multiple-zeta basis: split

SPLIT: Orbitals with angular momentum L= 0

SPLIT: Basis orbitals for state 2s

SPLIT: PAO cut-off radius determined from an
SPLIT: energy shift=  0.007350 Ry

   izeta = 1
                 lambda =    1.000000
                     rc =    4.632753
                 energy =   -1.002270
                kinetic =    0.855760
    potential(screened) =   -1.858031
       potential(ionic) =   -5.417575

   izeta = 2
                 rmatch =    3.431921
              splitnorm =    0.150000
                 energy =   -0.867111
                kinetic =    1.300804
    potential(screened) =   -2.167915
       potential(ionic) =   -5.962684

[...]

SPLIT: Basis orbitals for state 2p

[...]

POLgen: Perturbative polarization orbital with L=  2

POLgen: Polarization orbital for state 2p

   izeta = 1
                     rc =    5.658549
                 energy =    1.109913
                kinetic =    2.304789
    potential(screened) =   -1.194876
       potential(ionic) =   -4.013592
atom: Total number of Sankey-type orbitals: 13

atm_pop: Valence configuration (for local Pseudopot. screening):
 2s( 2.00)
 2p( 2.00)
Vna: chval, zval:    4.00000   4.00000

Vna:  Cut-off radius for the neutral-atom potential:   5.658549
comcore: Pseudo-core radius Rcore=  1.791422

atom: _________________________________________________________________________

<basis_specs>
B                    Z=   5    Mass=  10.810        Charge= 0.17977+309
Lmxo=1 Lmxkb= 3    BasisType=split      Semic=F
L=0  Nsemic=0  Cnfigmx=2
          n=1  nzeta=2  polorb=0
            splnorm:   0.15000
               vcte:    0.0000
               rinn:    0.0000
                rcs:    0.0000      0.0000
            lambdas:    1.0000      1.0000
L=1  Nsemic=0  Cnfigmx=2
          n=1  nzeta=2  polorb=1
            splnorm:   0.15000
               vcte:    0.0000
               rinn:    0.0000
                rcs:    0.0000      0.0000
            lambdas:    1.0000      1.0000
L=0  Nkbl=1  erefs: 0.17977+309
L=1  Nkbl=1  erefs: 0.17977+309
L=2  Nkbl=1  erefs: 0.17977+309
L=3  Nkbl=1  erefs: 0.17977+309
</basis_specs>

atom: Called for B                     (Z =   5)

read_vps: Pseudopotential generation method:
read_vps: ATM3      Troullier-Martins
Total valence charge:    3.00000

read_vps: Pseudopotential includes a core correction:
read_vps: Pseudo-core for xc-correction

xc_check: Exchange-correlation functional:
xc_check: GGA Perdew, Burke & Ernzerhof 1996
V l=0 = -2*Zval/r beyond r=  1.7165
V l=1 = -2*Zval/r beyond r=  1.7165
V l=2 = -2*Zval/r beyond r=  1.7165
V l=3 = -2*Zval/r beyond r=  1.6951
All V_l potentials equal beyond r=  1.7165
This should be close to max(r_c) in ps generation
All pots = -2*Zval/r beyond r=  1.7165

VLOCAL1: 99.0% of the norm of Vloc inside     14.733 Ry
VLOCAL1: 99.9% of the norm of Vloc inside     33.577 Ry
atom: Maximum radius for 4*pi*r*r*local-pseudopot. charge    2.04484
atom: Maximum radius for r*vlocal+2*Zval:    1.75994
GHOST: No ghost state for L =  0
GHOST: No ghost state for L =  1
GHOST: No ghost state for L =  2
GHOST: No ghost state for L =  3

KBgen: Kleinman-Bylander projectors:
   l= 0   rc=  1.897051   el= -0.693730   Ekb=  4.595746   kbcos=  0.286105
   l= 1   rc=  1.920920   el= -0.265236   Ekb= -2.350715   kbcos= -0.315747
   l= 2   rc=  2.044840   el=  0.002055   Ekb= -0.690767   kbcos= -0.013822
   l= 3   rc=  2.149707   el=  0.003188   Ekb= -0.315358   kbcos= -0.002055

KBgen: Total number of  Kleinman-Bylander projectors:   16
atom: -------------------------------------------------------------------------

atom: SANKEY-TYPE ORBITALS:
atom: Selected multiple-zeta basis: split

[...]

SPLIT: Basis orbitals for state 2s

[...]

SPLIT: Orbitals with angular momentum L= 1

SPLIT: Basis orbitals for state 2p

SPLIT: PAO cut-off radius determined from an
SPLIT: energy shift=  0.007350 Ry

   izeta = 1
                 lambda =    1.000000
                     rc =    6.790259
                 energy =   -0.258578
                kinetic =    1.481412
    potential(screened) =   -1.739989
       potential(ionic) =   -3.657461

   izeta = 2
                 rmatch =    4.608740
              splitnorm =    0.150000
                 energy =   -0.173757
                kinetic =    2.186690
    potential(screened) =   -2.360447
       potential(ionic) =   -4.464260

POLgen: Perturbative polarization orbital with L=  2

POLgen: Polarization orbital for state 2p

   izeta = 1
                     rc =    6.790259
                 energy =    0.684082
                kinetic =    1.471481
    potential(screened) =   -0.787399
       potential(ionic) =   -2.406985
atom: Total number of Sankey-type orbitals: 13

atm_pop: Valence configuration (for local Pseudopot. screening):
 2s( 2.00)
 2p( 1.00)
Vna: chval, zval:    3.00000   3.00000

Vna:  Cut-off radius for the neutral-atom potential:   6.790259
comcore: Pseudo-core radius Rcore=  2.122997

atom: _________________________________________________________________________

prinput: Basis input ----------------------------------------------------------

PAO.BasisType split

%block ChemicalSpeciesLabel
    1    6 C                       # Species index, atomic number, species label
    2    5 B                       # Species index, atomic number, species label
%endblock ChemicalSpeciesLabel

%block PAO.Basis                 # Define Basis set
C                     2                    # Species label, number of l-shells
 n=2   0   2                         # n, l, Nzeta
   4.633      3.432
   1.000      1.000
[...]
siesta:     32.50328  21.48508   0.00000  1        3
siesta:     34.83141  22.82873   0.00000  1        4
siesta:     34.83116  17.45226   0.00000  1        5
siesta:     37.15930  18.79590   0.00000  1        6
siesta:     32.50291  13.41944   0.00000  1        7
siesta:     34.83104  14.76308   0.00000  1        8
siesta:     30.17465   9.38661   0.00000  1        9
siesta:     32.50278  10.73026   0.00000  1       10
siesta:     27.84639   5.35379   0.00000  1       11
siesta:     30.17453   6.69743   0.00000  1       12
siesta:     27.84714  21.48508   0.00000  1       13
siesta:     30.17527  22.82873   0.00000  1       14
siesta:      6.89168   1.32097   0.00000  1       15
siesta:      9.21981   2.66461   0.00000  1       16
siesta:     11.54782   1.32097   0.00000  1       17
siesta:     13.87595   2.66461   0.00000  1       18
siesta:     16.20396   1.32097   0.00000  1       19
siesta:     18.53210   2.66461   0.00000  1       20
siesta:     20.86199   1.32097   0.00000  1       21
siesta:     23.19013   2.66461   0.00000  1       22
siesta:     25.51813   1.32097   0.00000  1       23
siesta:     27.84627   2.66461   0.00000  1       24
siesta:      4.56380   5.35379   0.00000  1       25
siesta:      6.89193   6.69743   0.00000  1       26
siesta:      9.21994   5.35379   0.00000  1       27
siesta:     11.54807   6.69743   0.00000  1       28
siesta:     13.87608   5.35379   0.00000  1       29
siesta:     16.20421   6.69743   0.00000  1       30
siesta:     18.53411   5.35379   0.00000  1       31
siesta:     20.86224   6.69743   0.00000  1       32
siesta:     23.19025   5.35379   0.00000  1       33
siesta:     25.51838   6.69743   0.00000  1       34
siesta:      6.89205   9.38661   0.00000  1       35
siesta:      9.22019  10.73026   0.00000  1       36
siesta:     11.54820   9.38661   0.00000  1       37
siesta:     13.87633  10.73026   0.00000  1       38
siesta:     16.20434   9.38661   0.00000  1       39
siesta:      9.22031  13.41944   0.00000  1       40
siesta:     11.54845  14.76308   0.00000  1       41
siesta:     13.87645  13.41944   0.00000  1       42
siesta:     16.20459  14.76308   0.00000  1       43
siesta:     11.54857  17.45226   0.00000  1       44
siesta:     13.87670  18.79590   0.00000  1       45
siesta:     16.20471  17.45226   0.00000  1       46
siesta:     18.53284  18.79590   0.00000  1       47
siesta:     13.87683  21.48508   0.00000  1       48
siesta:     16.20496  22.82873   0.00000  1       49
siesta:     18.53486  21.48508   0.00000  1       50
siesta:     20.86299  22.82873   0.00000  1       51
siesta:     25.51851   9.38661   0.00000  1       52
siesta:     27.84664  10.73026   0.00000  1       53
siesta:     23.19063  13.41944   0.00000  1       54
siesta:     25.51876  14.76308   0.00000  1       55
siesta:     20.86274  17.45226   0.00000  1       56
siesta:     23.19088  18.79590   0.00000  1       57
siesta:     27.84677  13.41944   0.00000  1       58
siesta:     30.17490  14.76308   0.00000  1       59
siesta:     25.51888  17.45226   0.00000  1       60
siesta:     27.84702  18.79590   0.00000  1       61
siesta:     23.19100  21.48508   0.00000  1       62
siesta:     25.51913  22.82873   0.00000  1       63
siesta:     30.17503  17.45226   0.00000  1       64
siesta:     32.50316  18.79590   0.00000  1       65
siesta:     37.16131  21.48508   0.00000  1       66
siesta:     39.48945  22.82873   0.00000  1       67
siesta:     18.53247  10.73026   0.00000  2       68
siesta:     20.86237   9.38661   0.00000  2       69
siesta:     23.19050  10.73026   0.00000  2       70
siesta:     18.53448  13.41944   0.00000  2       71
siesta:     20.86262  14.76308   0.00000  2       72

siesta: System type = slab

initatomlists: Number of atoms, orbitals, and projectors:     72   936  1152

siesta: ******************** Simulation parameters ****************************
siesta:
siesta: The following are some of the parameters of the simulation.
siesta: A complete list of the parameters used, including default values,
siesta: can be found in file out.fdf
siesta:
redata: Non-Collinear-spin run           =     F
redata: SpinPolarized (Up/Down) run      =     F
redata: Number of spin components        =     1
redata: Long output                      =     F
redata: Number of Atomic Species         =        2
redata: Charge density info will appear in .RHO file
redata: Write Mulliken Pop.              =     NO
redata: Mesh Cutoff                      =   200.0000  Ry
redata: Net charge of the system         =     0.0000 |e|
redata: Max. number of SCF Iter          =      500
redata: SCF convergence failure will abort job
redata: Performing Pulay mixing using    =    10 iterations
redata: Mix DM in first SCF step ?       =     F
redata: Write Pulay info on disk?        =     F
redata: Discard 1st Pulay DM after  kick =     F
redata: New DM Mixing Weight             =     0.0500
redata: New DM Occupancy tolerance       = 0.000000000001
redata: No kicks to SCF
redata: DM Mixing Weight for Kicks       =     0.5000
redata: DM Tolerance for SCF             =     0.000100
redata: Require Energy convergence for SCF =     F
redata: DM Energy tolerance for SCF      =     0.000100 eV
redata: Require Harris convergence for SCF =     F
redata: DM Harris energy tolerance for SCF =     0.000100 eV
redata: Using Saved Data (generic)   =     F
redata: Use continuation files for DM    =     T
redata: Neglect nonoverlap interactions  =     F
redata: Method of Calculation            =     Diagonalization
redata: Divide and Conquer               =     T
redata: Electronic Temperature           =     0.0019  Ry
redata: Fix the spin of the system       =     F
redata: Dynamics option                  =     Verlet MD run
redata: Initial MD time step             =        1
redata:   Final MD time step             =        1
redata: Length of MD time step           =     1.0000  fs
redata: Initial Temperature of MD run    =     0.0000  K
redata: Perform a MD quench              =     F
redata: ***********************************************************************
Total number of electrons:   283.000000
Total ionic charge:   283.000000

* ProcessorY, Blocksize:    3  24

k-point displ. along   1 input, could be:     0.50    0.00
k-point displ. along   2 input, could be:     0.50    0.00
 Kpoints in:          231 . Kpoints trimmed:          231

siesta: k-grid: Number of k-points =   231
siesta: k-grid: Cutoff (effective) =     5.000 Ang
siesta: k-grid: Supercell and displacements
siesta: k-grid:   21   0   0      0.500
siesta: k-grid:    0  21   0      0.500
siesta: k-grid:    0   0   1      0.000
Naive supercell factors:     2    2    2

superc: Internal auxiliary supercell:     2 x     2 x     2  =       8
superc: Number of atoms, orbitals, and projectors:    576   7488   9216

siesta:                 ==============================
                            Begin MD step =      1

superc: Internal auxiliary supercell:     2 x     2 x     2  =       8
superc: Number of atoms, orbitals, and projectors:    576   7488   9216

outcell: Unit cell vectors (Ang):
       14.785000    0.000000    0.000000
        7.393000   12.805052    0.000000
        0.000000    0.000000   10.000000

outcell: Cell vector modules (Ang)   :   14.785000   14.786000   10.000000
outcell: Cell angles (23,13,12) (deg):     90.0000     90.0000     60.0000
outcell: Cell volume (Ang**3)        :   1893.2269
New_DM. Step:     1
Initializing Density Matrix...

iodm: Reading Density Matrix from files

InitMesh: MESH =   120 x   120 x    90 =     1296000
InitMesh: Mesh cutoff (required, used) =   200.000   223.865 Ry

stepf: Fermi-Dirac step function

siesta: Program's energy decomposition (eV):
siesta: Ebs     =     -3815.413888
siesta: Eions   =     17762.727515
siesta: Ena     =      3861.816918
siesta: Ekin    =      7588.502857
siesta: Enl     =      -734.603456
siesta: DEna    =      -308.789441
siesta: DUscf   =        29.846264
siesta: DUext   =         0.000000
siesta: Exc     =     -4055.657534
siesta: eta*DQ  =         0.000000
siesta: Emadel  =         0.000000
siesta: Emeta   =         0.000000
siesta: Emolmec =         0.000000
siesta: Ekinion =         0.000000
siesta: Eharris =    -11381.611842
siesta: Etot    =    -11381.611907
siesta: FreeEng =    -11381.611907

siesta: E_KS(eV) =           -11381.6119

siesta: E_KS - E_eggbox =    -11381.6119

siesta: Atomic forces (eV/Ang):
   Tot    0.176310   -0.264345    0.000000
   Max    5.818574
   Res    1.030408    sqrt( Sum f_i^2 / 3N )
   Max    5.818574    constrained

Stress-tensor-Voigt (kbar):      -78.68      -80.44       -0.13        1.93        0.00        0.00
(Free)E + p*V (eV/cell)   -11318.9360
Target enthalpy (eV/cell)   -11381.6635

siesta: Stress tensor (static) (eV/Ang**3):
        -0.049111    0.001207    0.000000
         0.001207   -0.050204    0.000000
         0.000000    0.000000   -0.000083

siesta: Pressure (static):         53.08481582  kBar

siesta: Stress tensor (total) (eV/Ang**3):
        -0.049111    0.001207    0.000000
         0.001207   -0.050204    0.000000
         0.000000    0.000000   -0.000083

siesta: Pressure (total):         53.08481582  kBar

siesta: Temp_ion =       0.000 K

siesta: Program's energy decomposition (eV):
siesta: Ebs     =     -3815.413312
siesta: Eions   =     17762.727515
siesta: Ena     =      3861.816918
siesta: Ekin    =      7588.504546
siesta: Enl     =      -734.604197
siesta: DEna    =      -308.789984
siesta: DUscf   =        29.846105
siesta: DUext   =         0.000000
siesta: Exc     =     -4055.657775
siesta: eta*DQ  =         0.000000
siesta: Emadel  =         0.000000
siesta: Emeta   =         0.000000
siesta: Emolmec =         0.000000
siesta: Ekinion =         0.000000
siesta: Eharris =    -11381.611895
siesta: Etot    =    -11381.611901
siesta: FreeEng =    -11381.663512

siesta: Final energy (eV):
siesta:  Band Struct. =   -3815.413312
siesta:       Kinetic =    7588.504546
siesta:       Hartree =   22345.500880
siesta:    Ext. field =       0.000000
siesta:   Exch.-corr. =   -4055.657775
siesta:  Ion-electron =  -51657.314689
siesta:       Ion-ion =   14397.355137
siesta:       Ekinion =       0.000000
siesta:         Total =  -11381.611901

siesta: Atomic forces (eV/Ang):
siesta:      1   -0.293345   -0.192581    0.000000
siesta:      2    0.197903    0.113736    0.000000
siesta:      3    0.210825   -0.067442    0.000000
siesta:      4    0.002948   -0.148638    0.000000
siesta:      5    0.053924    0.194835    0.000000
siesta:      6   -0.138777    0.056362    0.000000
siesta:      7    0.243801   -0.099469    0.000000
siesta:      8   -0.006185   -0.297898    0.000000
siesta:      9    0.051774   -0.010139    0.000000
siesta:     10    0.174989    0.055978    0.000000
siesta:     11   -0.205663    0.035233    0.000000
siesta:     12   -0.123033    0.152360    0.000000
siesta:     13    0.050042    0.238766    0.000000
siesta:     14   -0.269966    0.156380    0.000000
siesta:     15    0.022536    0.154089    0.000000
siesta:     16   -0.178201    0.084643    0.000000
siesta:     17    0.270971   -0.112922    0.000000
siesta:     18   -0.094446   -0.256363    0.000000
siesta:     19   -0.166644   -0.220338    0.000000
siesta:     20   -0.019735    0.216060    0.000000
siesta:     21    0.031287    0.130646    0.000000
siesta:     22    0.053004    0.133899    0.000000
siesta:     23    0.190131   -0.208978    0.000000
siesta:     24    0.074447   -0.254196    0.000000
siesta:     25    0.162033   -0.088891    0.000000
siesta:     26   -0.017655   -0.190910    0.000000
siesta:     27   -0.125428   -0.088189    0.000000
siesta:     28    0.123490    0.075237    0.000000
siesta:     29    0.193714    0.051717    0.000000
siesta:     30   -0.904857    0.442241    0.000000
siesta:     31    0.792710   -0.698934    0.000000
siesta:     32    0.405421   -3.441761    0.000000
siesta:     33   -0.940854   -0.754178    0.000000
siesta:     34    1.055544    0.527061    0.000000
siesta:     35    0.053872    0.258580    0.000000
siesta:     36   -0.271203    0.051479    0.000000
siesta:     37    0.152560    0.114642    0.000000
siesta:     38   -0.079699   -1.028009    0.000000
siesta:     39   -3.442184   -2.001368    0.000000
siesta:     40   -0.260822   -0.067849    0.000000
siesta:     41    0.160468   -0.157019    0.000000
siesta:     42   -0.179823    1.051761    0.000000
siesta:     43   -2.752413    2.069529    0.000000
siesta:     44    0.159766   -0.034118    0.000000
siesta:     45    0.143092   -0.015661    0.000000
siesta:     46   -1.102195   -0.461375    0.000000
siesta:     47    1.019851    0.648878    0.000000
siesta:     48   -0.038170    0.230168    0.000000
siesta:     49   -0.148624    0.200803    0.000000
siesta:     50   -0.099751   -0.208993    0.000000
siesta:     51    0.057811   -0.170306    0.000000
siesta:     52    3.215664   -2.207719    0.000000
siesta:     53   -0.081448   -0.680994    0.000000
siesta:     54    2.949560    1.689470    0.000000
siesta:     55   -0.106580   -0.060688    0.000000
siesta:     56   -0.322097    3.873959    0.000000
siesta:     57   -0.639234    0.275173    0.000000
siesta:     58    0.338221    0.415671    0.000000
siesta:     59   -0.285213   -0.131782    0.000000
siesta:     60    0.541442    0.061322    0.000000
siesta:     61   -0.260556   -0.175913    0.000000
siesta:     62    0.029566    0.026517    0.000000
siesta:     63    0.126625    0.136136    0.000000
siesta:     64   -0.037624   -0.037058    0.000000
siesta:     65    0.077226    0.047158    0.000000
siesta:     66   -0.183433   -0.087530    0.000000
siesta:     67    0.212976    0.166087    0.000000
siesta:     68   -2.133860   -1.259099    0.000000
siesta:     69   -1.111207   -5.818574    0.000000
siesta:     70    4.480983    2.899913    0.000000
siesta:     71   -5.624802    1.999369    0.000000
siesta:     72    4.740864    2.435681    0.000000
siesta: ----------------------------------------
siesta:    Tot    0.176310   -0.264345    0.000000

siesta: Stress tensor (static) (eV/Ang**3):
siesta:    -0.049111    0.001207    0.000000
siesta:     0.001207   -0.050204    0.000000
siesta:     0.000000    0.000000   -0.000083

siesta: Cell volume =       1893.226895 Ang**3

siesta: Pressure (static):
siesta:                Solid            Molecule  Units
siesta:           0.00036086          0.00016450  Ry/Bohr**3
siesta:           0.03313258          0.01510338  eV/Ang**3
siesta:          53.08481582         24.19854246  kBar
(Free)E+ p_basis*V_orbitals  =      -11349.346126
(Free)Eharris+ p_basis*V_orbitals  =      -11349.346121

siesta: Electric dipole (a.u.)  =    0.000000    0.000000    0.000000
siesta: Electric dipole (Debye) =    0.000000    0.000000    0.000000

elaps:  Routine       Calls   Time/call    Tot.time        %
elaps:  siesta            1     298.809     298.809   100.00
elaps:  Setup             1       0.279       0.279     0.09
elaps:  bands             1       0.001       0.001     0.00
elaps:  writewave         1       0.002       0.002     0.00
elaps:  KSV_init          1       0.000       0.000     0.00
elaps:  IterMD            1     297.990     297.990    99.73
elaps:  hsparse           1       0.028       0.028     0.01
elaps:  overlap           1       0.712       0.712     0.24
elaps:  IterSCF           3      95.642     286.927    96.02
elaps:  kinefsm           2       0.365       0.730     0.24
elaps:  nlefsm            2       1.899       3.797     1.27
elaps:  DHSCF             4       6.952      27.807     9.31
elaps:  DHSCF1            1       0.101       0.101     0.03
elaps:  DHSCF2            1       2.586       2.586     0.87
elaps:  REORD            34       0.000       0.010     0.00
elaps:  POISON            5       0.040       0.202     0.07
elaps:  DHSCF3            4       5.394      21.577     7.22
elaps:  rhoofd            4       1.962       7.849     2.63
elaps:  cellXC            4       0.204       0.815     0.27
elaps:  vmat              4       2.702      10.808     3.62
elaps:  MolMec            2       0.000       0.000     0.00
elaps:  diagon            3      88.161     264.484    88.51
elaps:  cdiag           120       1.471     176.497    59.07
elaps:  cdiag1          120       0.070       8.394     2.81
elaps:  cdiag2          120       0.242      28.997     9.70
elaps:  cdiag3          120       1.142     136.981    45.84
elaps:  cdiag4          120       0.017       2.097     0.70
elaps:  DHSCF4            1       3.537       3.537     1.18
elaps:  dfscf             1       3.297       3.297     1.10
elaps:  overfsm           1       0.032       0.032     0.01
elaps:  optical           1       0.000       0.000     0.00

>> End of run:   6-APR-2016  14:13:57